100 36 100
59 33 39 13 99 80 47 49 59 98 53 19 59 98 49 35 46 26 44 14 4 73 88 35 71 21 67 52 46 90 67 57 75 58 70 74 39 17 24 98 67 29 70 78 27 71 13 74 97 9 40 1 35 28 88 58 49 7 10 47 50 29 4 25 88 74 52 79 43 28 77 10 57 99 88 85 70 54 11 67 15 51 21 2 79 61 60 80 69 22 27 71 52 31 48 40 57 71 28 48 
